Route #1: 67 34 46 8 35 53 11 7
Route #2: 66 59 14 19 54 13 27 52
Route #3: 4 45 29 5 69 71 60 70 20 37 15 57
Route #4: 74 28 61 21 36 47 48 30
Route #5: 2 62 22 1 43 42 64 41 56 23
Route #6: 49 24 18 55 25 31 10 65 38 58
Route #7: 40 3 44 32 50 9 39 72 12
Route #8: 26 17 51 16 63 73 33 6 68 75
Cost 802